NAME DC-OPF_2
ROWS
 N  OBJ
 L  R0      
 L  R1      
 L  R2      
 L  R3      
 L  R4      
 L  R5      
 L  R6      
 L  R7      
 L  R8      
 L  R9      
 L  R10     
 L  R11     
 L  R12     
 L  R13     
 L  R14     
 L  R15     
 L  R16     
 L  R17     
 L  R18     
 L  R19     
 L  R20     
 L  R21     
 L  R22     
 L  R23     
 L  R24     
 L  R25     
 L  R26     
 L  R27     
 L  R28     
 L  R29     
 L  R30     
 L  R31     
 L  R32     
 L  R33     
 L  R34     
 L  R35     
 L  R36     
 L  R37     
 L  R38     
 L  R39     
 L  R40     
 L  R41     
 L  R42     
 L  R43     
 L  R44     
 L  R45     
 L  R46     
 L  R47     
 L  R48     
 L  R49     
 L  R50     
 L  R51     
 L  R52     
 L  R53     
 L  R54     
 L  R55     
 L  R56     
 L  R57     
 L  R58     
 L  R59     
 L  R60     
 L  R61     
 L  R62     
 L  R63     
 L  R64     
 L  R65     
 L  R66     
 L  R67     
 L  R68     
 L  R69     
 L  R70     
 L  R71     
 L  R72     
 L  R73     
 L  R74     
 L  R75     
 L  R76     
COLUMNS
    PG[0,0]   OBJ       1.1674330000000001e+01
    PG[0,0]   R22       1
    PG[0,0]   R25       -1
    PG[0,0]   R64       1
    PG[0,0]   R70       -1
    PG[0,1]   OBJ       10.34189
    PG[0,1]   R23       1
    PG[0,1]   R26       -1
    PG[0,1]   R65       1
    PG[0,1]   R71       -1
    PG[0,2]   OBJ       10.84041
    PG[0,2]   R24       1
    PG[0,2]   R27       -1
    PG[0,2]   R66       1
    PG[0,2]   R72       -1
    delta[0,0]  R0        -5
    delta[0,0]  R1        -5
    delta[0,0]  R2        -3.3333333333333335e+00
    delta[0,0]  R11       5
    delta[0,0]  R12       5
    delta[0,0]  R13       3.3333333333333335e+00
    delta[0,0]  R30       1
    delta[0,0]  R36       -1
    delta[0,1]  R0        5
    delta[0,1]  R3        -4
    delta[0,1]  R4        -9.9999999999999982e+00
    delta[0,1]  R5        -3.3333333333333335e+00
    delta[0,1]  R6        -5
    delta[0,1]  R11       -5
    delta[0,1]  R14       4
    delta[0,1]  R15       9.9999999999999982e+00
    delta[0,1]  R16       3.3333333333333335e+00
    delta[0,1]  R17       5
    delta[0,1]  R31       1
    delta[0,1]  R37       -1
    delta[0,2]  R3        4
    delta[0,2]  R7        -3.8461538461538458e+00
    delta[0,2]  R8        -9.9999999999999982e+00
    delta[0,2]  R14       -4
    delta[0,2]  R18       3.8461538461538458e+00
    delta[0,2]  R19       9.9999999999999982e+00
    delta[0,2]  R28       1
    delta[0,2]  R29       -1
    delta[0,2]  R32       1
    delta[0,2]  R38       -1
    delta[0,3]  R1        5
    delta[0,3]  R4        9.9999999999999982e+00
    delta[0,3]  R9        -2.5
    delta[0,3]  R12       -5
    delta[0,3]  R15       -9.9999999999999982e+00
    delta[0,3]  R20       2.5
    delta[0,3]  R33       1
    delta[0,3]  R39       -1
    delta[0,4]  R2        3.3333333333333335e+00
    delta[0,4]  R5        3.3333333333333335e+00
    delta[0,4]  R7        3.8461538461538458e+00
    delta[0,4]  R9        2.5
    delta[0,4]  R10       -3.3333333333333335e+00
    delta[0,4]  R13       -3.3333333333333335e+00
    delta[0,4]  R16       -3.3333333333333335e+00
    delta[0,4]  R18       -3.8461538461538458e+00
    delta[0,4]  R20       -2.5
    delta[0,4]  R21       3.3333333333333335e+00
    delta[0,4]  R34       1
    delta[0,4]  R40       -1
    delta[0,5]  R6        5
    delta[0,5]  R8        9.9999999999999982e+00
    delta[0,5]  R10       3.3333333333333335e+00
    delta[0,5]  R17       -5
    delta[0,5]  R19       -9.9999999999999982e+00
    delta[0,5]  R21       -3.3333333333333335e+00
    delta[0,5]  R35       1
    delta[0,5]  R41       -1
    PL[0,0]   R0        1
    PL[0,0]   R11       -1
    PL[0,0]   R42       -1
    PL[0,0]   R53       1
    PL[0,0]   R64       -1
    PL[0,0]   R65       1
    PL[0,0]   R70       1
    PL[0,0]   R71       -1
    PL[0,1]   R1        1
    PL[0,1]   R12       -1
    PL[0,1]   R43       -1
    PL[0,1]   R54       1
    PL[0,1]   R64       -1
    PL[0,1]   R67       1
    PL[0,1]   R70       1
    PL[0,1]   R73       -1
    PL[0,2]   R2        1
    PL[0,2]   R13       -1
    PL[0,2]   R44       -1
    PL[0,2]   R55       1
    PL[0,2]   R64       -1
    PL[0,2]   R68       1
    PL[0,2]   R70       1
    PL[0,2]   R74       -1
    PL[0,3]   R3        1
    PL[0,3]   R14       -1
    PL[0,3]   R45       -1
    PL[0,3]   R56       1
    PL[0,3]   R65       -1
    PL[0,3]   R66       1
    PL[0,3]   R71       1
    PL[0,3]   R72       -1
    PL[0,4]   R4        1
    PL[0,4]   R15       -1
    PL[0,4]   R46       -1
    PL[0,4]   R57       1
    PL[0,4]   R65       -1
    PL[0,4]   R67       1
    PL[0,4]   R71       1
    PL[0,4]   R73       -1
    PL[0,5]   R5        1
    PL[0,5]   R16       -1
    PL[0,5]   R47       -1
    PL[0,5]   R58       1
    PL[0,5]   R65       -1
    PL[0,5]   R68       1
    PL[0,5]   R71       1
    PL[0,5]   R74       -1
    PL[0,6]   R6        1
    PL[0,6]   R17       -1
    PL[0,6]   R48       -1
    PL[0,6]   R59       1
    PL[0,6]   R65       -1
    PL[0,6]   R69       1
    PL[0,6]   R71       1
    PL[0,6]   R75       -1
    PL[0,7]   R7        1
    PL[0,7]   R18       -1
    PL[0,7]   R49       -1
    PL[0,7]   R60       1
    PL[0,7]   R66       -1
    PL[0,7]   R68       1
    PL[0,7]   R72       1
    PL[0,7]   R74       -1
    PL[0,8]   R8        1
    PL[0,8]   R19       -1
    PL[0,8]   R50       -1
    PL[0,8]   R61       1
    PL[0,8]   R66       -1
    PL[0,8]   R69       1
    PL[0,8]   R72       1
    PL[0,8]   R75       -1
    PL[0,9]   R9        1
    PL[0,9]   R20       -1
    PL[0,9]   R51       -1
    PL[0,9]   R62       1
    PL[0,9]   R67       -1
    PL[0,9]   R68       1
    PL[0,9]   R73       1
    PL[0,9]   R74       -1
    PL[0,10]  R10       1
    PL[0,10]  R21       -1
    PL[0,10]  R52       -1
    PL[0,10]  R63       1
    PL[0,10]  R68       -1
    PL[0,10]  R69       1
    PL[0,10]  R74       1
    PL[0,10]  R75       -1
    MARKER    'MARKER'                 'INTORG'
    linestatus[0,0]  R0        10000
    linestatus[0,0]  R11       10000
    linestatus[0,0]  R42       -39.9999999999996
    linestatus[0,0]  R53       -39.9999999999996
    linestatus[0,0]  R76       1
    linestatus[0,1]  R1        10000
    linestatus[0,1]  R12       10000
    linestatus[0,1]  R43       -5.9999999999999396e+01
    linestatus[0,1]  R54       -5.9999999999999396e+01
    linestatus[0,1]  R76       1
    linestatus[0,2]  R2        10000
    linestatus[0,2]  R13       10000
    linestatus[0,2]  R44       -39.9999999999996
    linestatus[0,2]  R55       -39.9999999999996
    linestatus[0,2]  R76       1
    linestatus[0,3]  R3        10000
    linestatus[0,3]  R14       10000
    linestatus[0,3]  R45       -39.9999999999996
    linestatus[0,3]  R56       -39.9999999999996
    linestatus[0,3]  R76       1
    linestatus[0,4]  R4        10000
    linestatus[0,4]  R15       10000
    linestatus[0,4]  R46       -5.9999999999999396e+01
    linestatus[0,4]  R57       -5.9999999999999396e+01
    linestatus[0,4]  R76       1
    linestatus[0,5]  R5        10000
    linestatus[0,5]  R16       10000
    linestatus[0,5]  R47       -2.9999999999999698e+01
    linestatus[0,5]  R58       -2.9999999999999698e+01
    linestatus[0,5]  R76       1
    linestatus[0,6]  R6        10000
    linestatus[0,6]  R17       10000
    linestatus[0,6]  R48       -89.9999999999991
    linestatus[0,6]  R59       -89.9999999999991
    linestatus[0,6]  R76       1
    linestatus[0,7]  R7        10000
    linestatus[0,7]  R18       10000
    linestatus[0,7]  R49       -6.9999999999999289e+01
    linestatus[0,7]  R60       -6.9999999999999289e+01
    linestatus[0,7]  R76       1
    linestatus[0,8]  R8        10000
    linestatus[0,8]  R19       10000
    linestatus[0,8]  R50       -79.9999999999992
    linestatus[0,8]  R61       -79.9999999999992
    linestatus[0,8]  R76       1
    linestatus[0,9]  R9        10000
    linestatus[0,9]  R20       10000
    linestatus[0,9]  R51       -19.9999999999998
    linestatus[0,9]  R62       -19.9999999999998
    linestatus[0,9]  R76       1
    linestatus[0,10]  R10       10000
    linestatus[0,10]  R21       10000
    linestatus[0,10]  R52       -39.9999999999996
    linestatus[0,10]  R63       -39.9999999999996
    linestatus[0,10]  R76       1
    MARKER    'MARKER'                 'INTEND'
RHS
    RHS1      R0        10000
    RHS1      R1        10000
    RHS1      R2        10000
    RHS1      R3        10000
    RHS1      R4        10000
    RHS1      R5        10000
    RHS1      R6        10000
    RHS1      R7        10000
    RHS1      R8        10000
    RHS1      R9        10000
    RHS1      R10       10000
    RHS1      R11       10000
    RHS1      R12       10000
    RHS1      R13       10000
    RHS1      R14       10000
    RHS1      R15       10000
    RHS1      R16       10000
    RHS1      R17       10000
    RHS1      R18       10000
    RHS1      R19       10000
    RHS1      R20       10000
    RHS1      R21       10000
    RHS1      R22       33.33333333335
    RHS1      R23       2.5000000000016666e+01
    RHS1      R24       3.0000000000016666e+01
    RHS1      R30       360
    RHS1      R31       360
    RHS1      R32       360
    RHS1      R33       360
    RHS1      R34       360
    RHS1      R35       360
    RHS1      R36       360
    RHS1      R37       360
    RHS1      R38       360
    RHS1      R39       360
    RHS1      R40       360
    RHS1      R41       360
    RHS1      R67       3.7800000000000002e+00
    RHS1      R68       3.7800000000000002e+00
    RHS1      R69       3.7800000000000002e+00
    RHS1      R73       -3.7800000000000002e+00
    RHS1      R74       -3.7800000000000002e+00
    RHS1      R75       -3.7800000000000002e+00
    RHS1      R76       5
BOUNDS
 UP BND1      PG[0,0]   9999.9
 UP BND1      PG[0,1]   9999.9
 UP BND1      PG[0,2]   9999.9
 LO BND1      delta[0,0]  -360
 UP BND1      delta[0,0]  360
 LO BND1      delta[0,1]  -360
 UP BND1      delta[0,1]  360
 LO BND1      delta[0,2]  -360
 UP BND1      delta[0,2]  360
 LO BND1      delta[0,3]  -360
 UP BND1      delta[0,3]  360
 LO BND1      delta[0,4]  -360
 UP BND1      delta[0,4]  360
 LO BND1      delta[0,5]  -360
 UP BND1      delta[0,5]  360
 LO BND1      PL[0,0]   -999.9
 UP BND1      PL[0,0]   999.9
 LO BND1      PL[0,1]   -999.9
 UP BND1      PL[0,1]   999.9
 LO BND1      PL[0,2]   -999.9
 UP BND1      PL[0,2]   999.9
 LO BND1      PL[0,3]   -999.9
 UP BND1      PL[0,3]   999.9
 LO BND1      PL[0,4]   -999.9
 UP BND1      PL[0,4]   999.9
 LO BND1      PL[0,5]   -999.9
 UP BND1      PL[0,5]   999.9
 LO BND1      PL[0,6]   -999.9
 UP BND1      PL[0,6]   999.9
 LO BND1      PL[0,7]   -999.9
 UP BND1      PL[0,7]   999.9
 LO BND1      PL[0,8]   -999.9
 UP BND1      PL[0,8]   999.9
 LO BND1      PL[0,9]   -999.9
 UP BND1      PL[0,9]   999.9
 LO BND1      PL[0,10]  -999.9
 UP BND1      PL[0,10]  999.9
 BV BND1      linestatus[0,0]
 BV BND1      linestatus[0,1]
 BV BND1      linestatus[0,2]
 BV BND1      linestatus[0,3]
 BV BND1      linestatus[0,4]
 BV BND1      linestatus[0,5]
 BV BND1      linestatus[0,6]
 BV BND1      linestatus[0,7]
 BV BND1      linestatus[0,8]
 BV BND1      linestatus[0,9]
 BV BND1      linestatus[0,10]
ENDATA
